(set-info :Origin "This instance was generated by: BanditFuzz-- an RL fuzzer for SMT solvers" )
(set-info :Author "Joe Scott, Fed Mora, Vijay Ganesh" )
(set-info :Contact "Joe Scott, joseph.scott@uwaterloo.ca")
(set-logic QF_BV)
(declare-const bool_0 Bool)
(declare-const bool_1 Bool)
(declare-const bool_2 Bool)
(declare-const bool_3 Bool)
(declare-const bool_4 Bool)
(declare-const bv_0 (_ BitVec 32))
(declare-const bv_1 (_ BitVec 32))
(declare-const bv_2 (_ BitVec 32))
(declare-const bv_3 (_ BitVec 32))
(declare-const bv_4 (_ BitVec 32))
(assert (not (bvsgt (bvurem bv_3 bv_0) (bvadd #x6742d56a  #xc5cdba1c ))))
(assert (bvslt (bvnor (bvsrem bv_1 bv_4) (bvor #x0f44ceab  bv_0)) (bvsdiv (bvudiv #x6f8f9821  bv_3) (bvashr #x83ca0016  #x1c218fbf ))))
(assert (bvsgt (bvshl (bvurem #xde1e1b29  #x83c587c3 ) (bvsub #xa6cb5785  #xa3d38b8c )) (bvand (bvsrem #x910868cf  #x1b09467f ) (bvxor bv_1 #x6fa98bd1 ))))
(assert (bvugt (bvshl (bvor bv_0 #xcdcdbd82 ) (bvnand bv_1 #x1da92489 )) (bvlshr (bvsmod bv_2 bv_3) (bvsub bv_4 bv_1))))
(assert (bvuge (bvashr (bvurem #xffc7e42a  #x090a7f6a ) (bvmul bv_3 bv_4)) (bvashr (bvnand #x9e75d5af  bv_4) (bvshl #x17dc27d4  bv_0))))
(check-sat)
(exit)
